n=214;
k_min=7;
k_max=7;
M=[| 166, 141, 146, 126, 145, 126, 146
 | 166, 138, 146, 126, 150, 120, 151
 | 164, 139, 145, 126, 150, 121, 152
 | 165, 141, 145, 126, 148, 123, 149
 | 163, 141, 145, 125, 149, 122, 151
 | 165, 142, 144, 126, 148, 122, 150
 | 164, 141, 145, 125, 148, 122, 151
 | 164, 142, 145, 125, 147, 123, 151
 | 166, 139, 147, 127, 147, 121, 149
 | 165, 143, 145, 125, 147, 123, 150
 | 164, 142, 144, 126, 148, 122, 150
 | 164, 144, 144, 125, 146, 124, 149
 | 164, 142, 144, 126, 148, 122, 151
 | 164, 143, 144, 125, 147, 124, 150
 | 163, 145, 144, 125, 146, 125, 150
 | 164, 144, 144, 125, 146, 124, 150
 | 163, 145, 144, 125, 145, 126, 149
 | 164, 143, 149, 126, 143, 127, 145
 | 166, 142, 148, 124, 144, 125, 148
 | 164, 143, 145, 125, 147, 123, 149
 | 164, 144, 145, 125, 146, 124, 149
 | 166, 143, 149, 124, 143, 125, 147
 | 164, 144, 145, 125, 145, 125, 148
 | 164, 144, 145, 125, 146, 124, 149
 | 164, 142, 146, 125, 146, 123, 150
 | 165, 143, 145, 125, 146, 124, 149
 | 165, 142, 146, 125, 147, 123, 149
 | 165, 143, 145, 125, 146, 123, 150
 | 163, 145, 144, 125, 146, 125, 149
 | 166, 143, 145, 124, 146, 123, 149
 | 163, 145, 144, 125, 145, 125, 149
 | 163, 144, 145, 124, 146, 125, 150
 | 164, 144, 145, 125, 146, 124, 149
 | 163, 145, 144, 125, 145, 125, 150
 | 163, 145, 145, 125, 145, 125, 148
 | 165, 142, 146, 125, 146, 123, 150
 | 166, 141, 148, 126, 145, 124, 147
 | 164, 145, 145, 125, 145, 125, 149
 | 163, 144, 149, 125, 141, 129, 146
 | 163, 144, 149, 125, 141, 129, 146
 | 164, 145, 145, 124, 145, 125, 149
 | 163, 145, 145, 124, 145, 125, 149
 | 165, 143, 146, 125, 146, 123, 149
 | 164, 144, 148, 125, 141, 130, 145
 | 163, 145, 145, 125, 145, 126, 148
 | 164, 143, 148, 126, 144, 125, 146
 | 164, 144, 147, 124, 144, 125, 149
 | 164, 145, 149, 125, 140, 130, 144
 | 164, 147, 147, 124, 139, 132, 144
 | 164, 142, 148, 126, 144, 125, 147
 | 166, 145, 148, 124, 139, 131, 144
 | 162, 145, 148, 125, 143, 126, 147
 | 161, 144, 149, 124, 143, 125, 150
 | 162, 145, 149, 123, 142, 126, 149
 | 162, 145, 149, 123, 142, 125, 150
 | 166, 148, 145, 121, 140, 126, 149
 | 164, 143, 145, 125, 147, 123, 150
 | 165, 143, 145, 125, 146, 123, 149
 | 163, 140, 145, 126, 149, 122, 151
 | 165, 141, 145, 125, 148, 122, 150
 | 166, 142, 147, 123, 144, 124, 149
 | 166, 141, 148, 126, 146, 124, 147
 | 163, 144, 148, 126, 142, 129, 145
 | 163, 144, 149, 126, 141, 130, 144
 | 163, 145, 148, 124, 141, 129, 145
 | 163, 144, 149, 124, 142, 128, 146
 | 166, 147, 147, 123, 139, 130, 144
 | 166, 147, 147, 123, 139, 131, 145
 | 166, 147, 147, 123, 139, 130, 145
 | 164, 147, 148, 123, 138, 132, 144
 | 166, 138, 146, 128, 150, 119, 149
 | 166, 140, 146, 127, 147, 123, 147
 | 165, 140, 144, 126, 150, 121, 151
 | 164, 140, 145, 126, 150, 121, 151
 | 165, 141, 144, 126, 149, 121, 151
 | 165, 141, 144, 126, 149, 121, 151
 | 165, 140, 145, 127, 149, 121, 149
 | 165, 141, 144, 126, 149, 122, 150
 | 165, 139, 146, 125, 149, 121, 152
 | 164, 142, 144, 127, 149, 122, 150
 | 163, 141, 144, 128, 149, 122, 149
 | 164, 140, 145, 126, 150, 121, 152
 | 164, 140, 145, 126, 149, 122, 151
 | 165, 141, 144, 126, 149, 121, 150
 | 166, 135, 145, 131, 154, 116, 150
 | 164, 141, 146, 125, 148, 122, 150
 | 163, 141, 145, 125, 148, 122, 152
 | 165, 140, 145, 126, 149, 121, 150
 | 165, 142, 144, 126, 148, 122, 150
 | 164, 143, 143, 126, 148, 123, 150
 | 163, 145, 146, 126, 144, 127, 146
 | 164, 143, 145, 125, 147, 123, 150
 | 166, 142, 146, 122, 145, 123, 152
 | 164, 142, 146, 124, 147, 122, 152
 | 164, 143, 144, 125, 147, 123, 150
 | 164, 142, 147, 126, 146, 124, 148
 | 162, 145, 146, 126, 143, 127, 147
 | 166, 147, 143, 123, 142, 127, 148
 | 166, 144, 145, 124, 144, 123, 150
 | 163, 145, 147, 124, 144, 124, 150
 | 166, 145, 146, 122, 143, 124, 150
 | 166, 148, 146, 123, 140, 127, 146
 | 166, 149, 146, 120, 139, 129, 149
 | 166, 148, 147, 124, 132, 137, 142
 | 166, 148, 150, 122, 133, 133, 144
 | 145, 156, 144, 127, 126, 155, 144
 | 146, 149, 143, 134, 133, 149, 143
 | 148, 151, 143, 130, 128, 155, 141
 | 147, 166, 154, 117, 124, 138, 150
 | 148, 156, 151, 121, 130, 140, 150
 | 144, 153, 142, 125, 126, 165, 141
 | 144, 152, 142, 126, 126, 166, 141
 | 147, 156, 144, 124, 125, 158, 142
 | 166, 140, 145, 126, 148, 122, 149
 | 166, 142, 144, 126, 147, 124, 147
 | 166, 141, 145, 126, 148, 123, 148
 | 166, 141, 145, 126, 147, 123, 148
 | 166, 138, 145, 128, 150, 120, 148
 | 166, 140, 145, 127, 149, 121, 149
 | 164, 139, 146, 127, 149, 121, 150
 | 166, 141, 145, 126, 147, 123, 148
 | 165, 141, 144, 126, 149, 122, 150
 | 164, 141, 145, 126, 148, 122, 150
 | 165, 140, 146, 127, 149, 120, 150
 | 165, 142, 145, 125, 146, 124, 149
 | 166, 143, 145, 126, 146, 124, 148
 | 165, 143, 145, 125, 146, 124, 148
 | 159, 148, 154, 123, 137, 128, 148
 | 159, 147, 153, 123, 138, 126, 150
 | 155, 153, 156, 121, 130, 131, 151
 | 153, 157, 155, 119, 127, 136, 150
 | 149, 159, 147, 124, 124, 149, 145
 | 165, 140, 145, 127, 148, 123, 149
 | 164, 140, 146, 128, 148, 123, 147
 | 164, 141, 145, 126, 148, 122, 150
 | 165, 142, 145, 126, 147, 124, 148
 | 164, 143, 144, 125, 147, 124, 150
 | 166, 142, 144, 126, 148, 122, 150
 | 166, 141, 143, 125, 149, 121, 151
 | 166, 141, 143, 126, 149, 121, 150
 | 166, 140, 145, 126, 148, 121, 149
 | 166, 142, 145, 125, 147, 123, 149
 | 164, 142, 144, 126, 148, 123, 150
 | 164, 142, 145, 127, 148, 122, 149
 | 163, 145, 146, 124, 144, 125, 150
 | 164, 144, 145, 126, 145, 125, 148
 | 165, 142, 147, 123, 145, 124, 150
 | 164, 141, 146, 126, 147, 122, 150
 | 165, 142, 146, 125, 147, 123, 149
 | 162, 146, 143, 126, 145, 126, 148
 | 164, 142, 146, 126, 147, 123, 149
 | 163, 144, 149, 126, 142, 128, 145
 | 163, 143, 147, 123, 144, 126, 150
 | 164, 141, 146, 125, 147, 122, 150
 | 164, 144, 145, 125, 145, 125, 148
 | 165, 143, 146, 124, 145, 124, 150
 | 164, 142, 147, 125, 145, 124, 150
 | 163, 144, 149, 125, 141, 129, 145
 | 165, 142, 148, 126, 145, 124, 147
 | 166, 142, 148, 126, 144, 124, 147
 | 164, 143, 148, 126, 144, 125, 147
 | 164, 143, 148, 123, 144, 126, 149
 | 166, 142, 148, 126, 143, 126, 145
 | 151, 136, 142, 143, 152, 123, 149
 | 158, 151, 150, 122, 134, 132, 149
 | 153, 162, 145, 122, 129, 143, 143
 | 150, 166, 142, 122, 129, 146, 142
 | 147, 156, 149, 122, 127, 145, 150
 | 149, 151, 150, 126, 132, 136, 152
 | 147, 159, 152, 121, 126, 140, 152
 | 147, 166, 150, 120, 122, 144, 148
 | 143, 136, 139, 166, 143, 127, 143
 | 143, 136, 139, 165, 143, 127, 143
 | 147, 164, 149, 120, 123, 147, 147
 | 156, 148, 151, 126, 136, 129, 151
 | 148, 157, 151, 120, 127, 142, 151
 | 163, 147, 154, 120, 137, 126, 149
 | 160, 148, 154, 120, 137, 129, 149
 | 166, 146, 156, 119, 138, 122, 150
 | 163, 146, 155, 120, 138, 124, 151
 | 152, 141, 148, 123, 145, 121, 166
 | 155, 153, 166, 116, 128, 123, 155
 | 149, 158, 157, 118, 125, 134, 156
 | 148, 161, 154, 119, 127, 138, 150
 | 147, 144, 148, 133, 144, 128, 153
 | 156, 133, 140, 137, 166, 117, 148
 | 156, 135, 142, 138, 158, 119, 149
 | 163, 143, 148, 125, 145, 125, 148
 | 155, 146, 152, 131, 138, 127, 147
 | 166, 143, 149, 129, 141, 122, 147
 | 158, 145, 153, 122, 142, 123, 154
 | 150, 147, 155, 123, 136, 122, 165
 | 150, 147, 154, 123, 135, 125, 163
 | 149, 146, 153, 125, 138, 123, 163
 | 149, 146, 152, 124, 138, 123, 165
 | 150, 147, 154, 123, 134, 124, 164
 | 149, 149, 154, 122, 133, 126, 162
 | 150, 148, 155, 121, 134, 122, 166
 | 150, 147, 155, 122, 134, 123, 166
 | 150, 147, 156, 123, 135, 121, 163
 | 150, 146, 154, 125, 138, 122, 162
 | 149, 147, 143, 137, 140, 134, 147
 | 150, 146, 153, 125, 138, 123, 162
 | 149, 145, 152, 126, 140, 122, 163
 | 150, 147, 155, 123, 136, 122, 164
 | 150, 147, 153, 124, 138, 123, 162
 | 150, 147, 154, 124, 137, 123, 162
 | 146, 138, 143, 136, 148, 120, 166
 | 150, 149, 156, 121, 131, 124, 166
 | 150, 147, 154, 125, 135, 125, 162
 | 149, 146, 153, 125, 139, 122, 162
 | 149, 145, 151, 124, 139, 123, 166
 | 149, 145, 151, 124, 139, 123, 165
 | 149, 146, 152, 124, 138, 124, 165 |];
 P=[1, 1, 1, 1, 1, 1, 1, 1, 1, 1, 1, 1, 1, 1, 1, 1, 1, 1, 1, 1, 1, 1, 1, 1, 1, 1, 1, 1, 1, 1, 1, 1, 1, 1, 1, 1, 1, 1, 1, 1, 1, 1, 1, 1, 1, 1, 1, 1, 1, 1, 1, 1, 1, 1, 1, 1, 1, 1, 1, 1, 1, 1, 1, 1, 1, 1, 1, 1, 1, 1, 1, 1, 1, 1, 1, 1, 1, 1, 1, 1, 1, 1, 1, 1, 1, 1, 1, 1, 1, 1, 1, 1, 1, 1, 1, 1, 1, 1, 1, 1, 1, 1, 1, 1, 1, 6, 6, 6, 2, 2, 6, 6, 6, 1, 1, 1, 1, 1, 1, 1, 1, 1, 1, 1, 1, 1, 1, 1, 1, 1, 2, 6, 1, 1, 1, 1, 1, 1, 1, 1, 1, 1, 1, 1, 1, 1, 1, 1, 1, 1, 1, 1, 1, 1, 1, 1, 1, 1, 1, 1, 1, 1, 1, 5, 1, 2, 2, 2, 2, 2, 2, 4, 4, 2, 1, 2, 1, 1, 1, 1, 7, 3, 2, 2, 7, 5, 5, 1, 1, 1, 3, 7, 7, 7, 7, 7, 7, 7, 7, 7, 7, 2, 7, 7, 7, 7, 7, 7, 7, 7, 7, 7, 7, 7 ];